c A 3SAT instance whose satisfying assignment encodes the subset of [1, 1] that add up to 1
p cnf 16 50
3 0
-4 0
5 0
-6 0
-7 1 3 0
-7 -1 3 0
-7 1 -3 0
7 -1 -3 0
-8 1 4 0
-8 -1 4 0
-8 1 -4 0
8 -1 -4 0
-9 2 5 0
-9 -2 5 0
-9 2 -5 0
9 -2 -5 0
-10 2 6 0
-10 -2 6 0
-10 2 -6 0
10 -2 -6 0
-11 7 0
11 -7 0
-12 8 0
12 -8 0
-13 11 9 0
13 -11 9 0
13 11 -9 0
-13 -11 -9 0
-15 11 9 0
-15 -11 9 0
-15 11 -9 0
15 -11 -9 0
-14 15 12 10 0
14 -15 12 10 0
14 15 -12 10 0
-14 -15 -12 10 0
14 15 12 -10 0
-14 -15 12 -10 0
-14 15 -12 -10 0
14 -15 -12 -10 0
-16 12 10 15 0
-16 -12 10 15 0
-16 12 -10 15 0
16 -12 -10 15 0
-16 12 10 -15 0
16 -12 10 -15 0
16 12 -10 -15 0
16 -12 -10 -15 0
13 0
-14 0
